N = 7;
Capacity = 11;
Demand = [7, 3, 5, 4, 2, 4, 6];
Distance = [|
  0, 26, 45, 67, 51, 35, 48, 8
| 26, 0, 46, 63, 44, 60, 71, 31
| 45, 46, 0, 108, 89, 55, 55, 53
| 67, 63, 108, 0, 19, 93, 109, 62
| 51, 44, 89, 19, 0, 80, 96, 47
| 35, 60, 55, 93, 80, 0, 16, 34
| 48, 71, 55, 109, 96, 16, 0, 49
| 8, 31, 53, 62, 47, 34, 49, 0
|];
